************************************************************************
file with basedata            : n/a
initial value random generator: n/a
************************************************************************
projects                      :  1
jobs (incl. supersource/sink ):  122
horizon                       :  615
RESOURCES
  - renewable                 :  4   R
  - nonrenewable              :  0   N
  - doubly constrained        :  0   D
************************************************************************
PROJECT INFORMATION:
pronr.  #jobs rel.date duedate tardcost  MPM-Time
    1    120      0      100       52      100
************************************************************************
PRECEDENCE RELATIONS:
jobnr.    #modes  #successors   successors
   1        1          3           2   3   4
   2        1          3          12  34  49
   3        1          3           5   8  24
   4        1          3           6  13  26
   5        1          3           7  10  17
   6        1          3           9  14  39
   7        1          2          18  47
   8        1          3          15  51 101
   9        1          2          11  59
  10        1          3          21  29  78
  11        1          3          16  20  32
  12        1          3          14  35  82
  13        1          3          28  59  99
  14        1          3          30  43  46
  15        1          2          35  63
  16        1          3          23  48  58
  17        1          1         105
  18        1          3          19  32  82
  19        1          3          44  59  62
  20        1          2          22  80
  21        1          1         114
  22        1          3          25  27  28
  23        1          3          31  35  38
  24        1          3          56  80  91
  25        1          3          36  81  83
  26        1          3          33  49  72
  27        1          3          33  42  99
  28        1          3          33  38 100
  29        1          3          40  57  88
  30        1          3          32  42  50
  31        1          1          90
  32        1          3          41  53  72
  33        1          3          37  56 112
  34        1          3          83  88 102
  35        1          1          61
  36        1          2          60 100
  37        1          1          68
  38        1          3          52  66  92
  39        1          3          40  42  95
  40        1          2          68  87
  41        1          3          45  48  94
  42        1          3          86  96 106
  43        1          2          51  73
  44        1          3          68  69 103
  45        1          1          58
  46        1          2          50  72
  47        1          3          55  60  69
  48        1          3          63  64  98
  49        1          3          62  64  67
  50        1          3          57  58  84
  51        1          3          54  89  93
  52        1          3          74 107 108
  53        1          2          63  77
  54        1          3          69  86 121
  55        1          2          70  84
  56        1          2          70  76
  57        1          3          71 102 103
  58        1          1          76
  59        1          2          67  76
  60        1          3          66  74 110
  61        1          3          66  73  87
  62        1          3          65  83 112
  63        1          3          75 111 115
  64        1          2          65  91
  65        1          1          79
  66        1          3          70  89 109
  67        1          3          73  88 109
  68        1          3          71  77  92
  69        1          2          90  94
  70        1          1          77
  71        1          2          74  93
  72        1          3          78  81  84
  73        1          1          75
  74        1          2          85  91
  75        1          3          79  89 100
  76        1          3          79  86  87
  77        1          1          98
  78        1          3          90  93 102
  79        1          2          81 118
  80        1          1          97
  81        1          3          85  92 103
  82        1          1         105
  83        1          1         104
  84        1          2          85  99
  85        1          2         119 120
  86        1          1         111
  87        1          1         117
  88        1          3          94  97 101
  89        1          1          95
  90        1          2          95 106
  91        1          2          96  97
  92        1          1         108
  93        1          2          96 109
  94        1          1          98
  95        1          2         107 113
  96        1          2         104 121
  97        1          2         104 106
  98        1          1         111
  99        1          1         101
 100        1          1         110
 101        1          2         105 107
 102        1          1         121
 103        1          1         110
 104        1          1         113
 105        1          2         108 116
 106        1          1         115
 107        1          1         112
 108        1          1         119
 109        1          2         113 115
 110        1          1         117
 111        1          2         114 117
 112        1          1         114
 113        1          1         118
 114        1          2         116 118
 115        1          1         116
 116        1          1         120
 117        1          1         119
 118        1          1         120
 119        1          1         122
 120        1          1         122
 121        1          1         122
 122        1          0        
************************************************************************
REQUESTS/DURATIONS:
jobnr. mode duration  R 1  R 2  R 3  R 4
------------------------------------------------------------------------
  1      1     0    
  2      1     5       7   7   7   7   7
                       5   5   5   5   5
                       3   3   3   3   3
                       4   4   4   4   4
  3      1     4       0   0   0   0
                       1   1   1   1
                       5  10   5   5
                       1   1   1   1
  4      1     9       7   7   4   7   7   7   7   7   7
                       0   0   0   0   0   0   0   0   0
                       2   2   1   2   2   2   2   2   2
                       0   0   0   0   0   0   0   0   0
  5      1     8       0   0   0   0   0   0   0   0
                       2   4   2   2   4   4   4   4
                       1   1   1   1   1   1   1   1
                       0   0   0   0   0   0   0   0
  6      1     4       8   8   8   4
                       5   5   5   3
                       2   2   2   1
                       4   4   4   2
  7      1     2       0   0
                       0   0
                       9   9
                       3   3
  8      1     3       0   0   0
                       1   2   2
                       4   8   8
                       2   4   4
  9      1     4       9   9   9   9
                       2   2   2   2
                       0   0   0   0
                       3   3   3   3
 10      1     9       6   6   6   3   6   6   6   6   3
                       6   6   6   3   6   6   6   6   3
                       2   2   2   1   2   2   2   2   1
                       7   7   7   4   7   7   7   7   4
 11      1     3       3   6   6
                       0   0   0
                       5   9   9
                       1   2   2
 12      1     2       5   5
                       5   5
                       9   9
                       8   8
 13      1     5       1   1   1   1   1
                       0   0   0   0   0
                       0   0   0   0   0
                       6   6   6   6   6
 14      1     4       1   1   1   1
                       0   0   0   0
                       0   0   0   0
                       1   1   1   1
 15      1     5       0   0   0   0   0
                       0   0   0   0   0
                       8   8   4   8   8
                       2   2   1   2   2
 16      1     1       8
                       1
                       6
                       2
 17      1     1       9
                       0
                       3
                       0
 18      1     2       6   6
                       6   6
                       9   9
                       9   9
 19      1     2       0   0
                       3   3
                       0   0
                       3   3
 20      1     1       2
                       2
                       3
                       1
 21      1     5       8   8   8   8   8
                       6   6   6   6   6
                      10  10  10  10  10
                       1   1   1   1   1
 22      1     1      10
                       3
                       7
                       0
 23      1     4       6   6   6   6
                       0   0   0   0
                       6   6   6   6
                       0   0   0   0
 24      1     9       3   6   6   6   6   6   6   6   6
                       5   9   9   9   9   9   9   9   9
                       4   8   8   8   8   8   8   8   8
                       3   6   6   6   6   6   6   6   6
 25      1     8       7   7   4   7   4   7   4   4
                       2   2   1   2   1   2   1   1
                       8   8   4   8   4   8   4   4
                       0   0   0   0   0   0   0   0
 26      1     5       6   6   6   6   6
                       9   9   9   9   9
                       8   8   8   8   8
                       4   4   4   4   4
 27      1     1      10
                       3
                       9
                       0
 28      1     5       0   0   0   0   0
                       5   5   5   5   3
                       1   1   1   1   1
                       7   7   7   7   4
 29      1     5       5   5   5   5   5
                       1   1   1   1   1
                       6   6   6   6   6
                       5   5   5   5   5
 30      1     5       0   0   0   0   0
                       5   3   5   3   5
                       7   4   7   4   7
                       0   0   0   0   0
 31      1     1       0
                       5
                       4
                       5
 32      1     3       5   9   5
                       2   3   2
                       0   0   0
                       4   7   4
 33      1    10       5   5   5   5   5   5   3   5   5   5
                       6   6   6   6   6   6   3   6   6   6
                       9   9   9   9   9   9   5   9   9   9
                       0   0   0   0   0   0   0   0   0   0
 34      1     1       2
                       0
                       9
                       3
 35      1     4       0   0   0   0
                       0   0   0   0
                       2   3   3   3
                       5   9   9   9
 36      1     5       0   0   0   0   0
                       7   4   4   7   7
                       8   4   4   8   8
                      10   5   5  10  10
 37      1     4       0   0   0   0
                       1   1   1   1
                       2   2   1   2
                       9   9   5   9
 38      1     5       7   7   7   7   7
                       4   4   4   4   4
                       8   8   8   8   8
                       7   7   7   7   7
 39      1     2       1   1
                       0   0
                       1   1
                       9   5
 40      1     4       0   0   0   0
                       7   7   4   7
                       5   5   3   5
                       3   3   2   3
 41      1     5       8   8   8   8   8
                       5   5   5   5   5
                       0   0   0   0   0
                       2   2   2   2   2
 42      1     8       7   7   7   7   7   7   7   7
                       0   0   0   0   0   0   0   0
                       5   5   5   5   5   5   5   5
                       3   3   3   3   3   3   3   3
 43      1     1       3
                       3
                       7
                       6
 44      1    10       4   4   2   2   4   4   4   4   4   4
                       4   4   2   2   4   4   4   4   4   4
                       2   2   1   1   2   2   2   2   2   2
                       8   8   4   4   8   8   8   8   8   8
 45      1     7       0   0   0   0   0   0   0
                       0   0   0   0   0   0   0
                       1   1   1   1   1   1   1
                       5   5   5   5   5   5   5
 46      1     3       0   0   0
                       3   3   3
                       3   3   3
                       6   6   6
 47      1     1       0
                       2
                       5
                      10
 48      1     2       4   4
                       6   6
                       0   0
                       9   9
 49      1     5       3   3   3   3   2
                       6   6   6   6   3
                       4   4   4   4   2
                       0   0   0   0   0
 50      1     2       0   0
                       5   3
                       2   1
                       3   2
 51      1     2       1   1
                       0   0
                       3   3
                       4   4
 52      1     1       0
                       5
                       7
                       3
 53      1     2       0   0
                       0   0
                       0   0
                      10  10
 54      1     7       2   2   2   1   2   2   2
                       3   3   3   2   3   3   3
                       3   3   3   2   3   3   3
                       0   0   0   0   0   0   0
 55      1     1       1
                       9
                      10
                       3
 56      1     6       2   2   2   2   2   2
                       6   6   6   6   6   6
                       9   9   9   9   9   9
                       9   9   9   9   9   9
 57      1    10       9   9   9   9   9   9   9   5   9   9
                       6   6   6   6   6   6   6   3   6   6
                       0   0   0   0   0   0   0   0   0   0
                       0   0   0   0   0   0   0   0   0   0
 58      1     3       0   0   0
                       3   5   5
                       3   5   5
                       0   0   0
 59      1     2       7   4
                      10   5
                       4   2
                       6   3
 60      1     3       5   3   5
                       4   2   4
                       8   4   8
                       7   4   7
 61      1    10       5   9   9   9   9   9   9   9   9   9
                       4   8   8   8   8   8   8   8   8   8
                       5  10  10  10  10  10  10  10  10  10
                       0   0   0   0   0   0   0   0   0   0
 62      1     1       1
                       4
                       1
                       3
 63      1     7       1   1   1   1   1   1   1
                       6   3   6   6   6   3   6
                       8   4   8   8   8   4   8
                       1   1   1   1   1   1   1
 64      1     6       4   4   4   4   4   4
                       1   1   1   1   1   1
                       9   9   9   9   9   9
                       0   0   0   0   0   0
 65      1     2       0   0
                       3   2
                       1   1
                       3   2
 66      1     2       1   1
                      10  10
                       3   3
                       4   4
 67      1     6       0   0   0   0   0   0
                       9   9   5   5   9   5
                       0   0   0   0   0   0
                       6   6   3   3   6   3
 68      1     3       7   7   4
                      10  10   5
                       7   7   4
                       0   0   0
 69      1    10       0   0   0   0   0   0   0   0   0   0
                       0   0   0   0   0   0   0   0   0   0
                       9   9   9   9   9   9   9   5   9   5
                       8   8   8   8   8   8   8   4   8   4
 70      1    10       1   1   1   1   1   1   1   1   1   1
                       3   6   6   6   3   6   3   6   3   6
                       2   3   3   3   2   3   2   3   2   3
                       0   0   0   0   0   0   0   0   0   0
 71      1    10       0   0   0   0   0   0   0   0   0   0
                       4   4   4   4   2   4   4   4   4   4
                       0   0   0   0   0   0   0   0   0   0
                       3   3   3   3   2   3   3   3   3   3
 72      1     7       9   5   9   9   9   9   5
                       0   0   0   0   0   0   0
                       5   3   5   5   5   5   3
                       2   1   2   2   2   2   1
 73      1     9       5   3   3   3   5   3   5   5   3
                       1   1   1   1   1   1   1   1   1
                       3   2   2   2   3   2   3   3   2
                       1   1   1   1   1   1   1   1   1
 74      1     5       0   0   0   0   0
                       2   2   2   2   1
                       0   0   0   0   0
                       3   3   3   3   2
 75      1     7       0   0   0   0   0   0   0
                       0   0   0   0   0   0   0
                       0   0   0   0   0   0   0
                       4   2   2   4   4   2   4
 76      1     9       1   1   1   1   1   1   1   1   1
                       3   5   5   5   5   5   5   5   5
                       1   1   1   1   1   1   1   1   1
                       1   1   1   1   1   1   1   1   1
 77      1     9       5   5   3   5   5   5   5   5   3
                       5   5   3   5   5   5   5   5   3
                       7   7   4   7   7   7   7   7   4
                       5   5   3   5   5   5   5   5   3
 78      1     9       2   4   2   4   4   4   4   4   4
                       0   0   0   0   0   0   0   0   0
                       3   6   3   6   6   6   6   6   6
                       4   7   4   7   7   7   7   7   7
 79      1     7       6   6   3   6   6   6   3
                       9   9   5   9   9   9   5
                       0   0   0   0   0   0   0
                      10  10   5  10  10  10   5
 80      1     4       1   1   1   1
                       0   0   0   0
                       1   1   1   1
                       8   8   8   8
 81      1     8       1   1   1   1   1   1   1   1
                       5   5   5   5   5   5   5   5
                       6   6   6   6   6   6   6   6
                       2   2   2   2   2   2   2   2
 82      1    10       2   3   3   3   3   3   2   3   3   3
                       3   5   5   5   5   5   3   5   5   5
                       3   5   5   5   5   5   3   5   5   5
                       1   2   2   2   2   2   1   2   2   2
 83      1     2       0   0
                       2   3
                       5   9
                       5   9
 84      1     5       1   2   2   1   2
                       3   6   6   3   6
                       5  10  10   5  10
                       0   0   0   0   0
 85      1     2       4   4
                       6   6
                       7   7
                       1   1
 86      1     4       1   1   1   1
                       3   3   3   3
                       7   7   7   7
                       9   9   9   9
 87      1    10       0   0   0   0   0   0   0   0   0   0
                       9   9   5   9   9   9   9   9   9   9
                      10  10   5  10  10  10  10  10  10  10
                       9   9   5   9   9   9   9   9   9   9
 88      1     4       3   3   2   3
                       0   0   0   0
                       8   8   4   8
                       4   4   2   4
 89      1     1       0
                       0
                       1
                       2
 90      1     6       0   0   0   0   0   0
                       4   4   7   7   7   7
                       2   2   4   4   4   4
                       0   0   0   0   0   0
 91      1     1       3
                       3
                       0
                       0
 92      1     7       5   5   3   5   5   5   5
                       5   5   3   5   5   5   5
                       7   7   4   7   7   7   7
                       5   5   3   5   5   5   5
 93      1     5       5  10  10   5  10
                       1   1   1   1   1
                       0   0   0   0   0
                       4   7   7   4   7
 94      1     1       0
                       3
                       0
                       3
 95      1     6       0   0   0   0   0   0
                       6   6   6   6   6   6
                       6   6   6   6   6   6
                       9   9   9   9   9   9
 96      1     4       0   0   0   0
                       6   6   6   3
                       5   5   5   3
                       0   0   0   0
 97      1     1       4
                       7
                       4
                       0
 98      1     5       0   0   0   0   0
                       6   6   6   6   6
                       6   6   6   6   6
                       7   7   7   7   7
 99      1     6       1   1   1   1   1   1
                       0   0   0   0   0   0
                       3   3   3   3   3   3
                      10  10  10  10  10  10
100      1     3      10  10  10
                       1   1   1
                       4   4   4
                       8   8   8
101      1     5       0   0   0   0   0
                       3   3   3   3   3
                       7   7   7   7   7
                       4   4   4   4   4
102      1     7       0   0   0   0   0   0   0
                       4   7   7   7   7   7   7
                       4   8   8   8   8   8   8
                       0   0   0   0   0   0   0
103      1     9       0   0   0   0   0   0   0   0   0
                       0   0   0   0   0   0   0   0   0
                       2   2   3   2   2   3   3   3   3
                       0   0   0   0   0   0   0   0   0
104      1    10       0   0   0   0   0   0   0   0   0   0
                       1   1   1   1   1   1   1   1   1   1
                       9   9   9   9   5   9   5   9   9   9
                       9   9   9   9   5   9   5   9   9   9
105      1     9       1   1   1   1   1   1   1   1   1
                       1   2   2   2   2   2   2   2   2
                       2   4   4   4   4   4   4   4   4
                       0   0   0   0   0   0   0   0   0
106      1     9       1   1   1   1   1   1   1   1   1
                       8   8   8   8   4   8   8   8   8
                       0   0   0   0   0   0   0   0   0
                      10  10  10  10   5  10  10  10  10
107      1    10      10  10  10  10  10  10   5  10  10  10
                       0   0   0   0   0   0   0   0   0   0
                      10  10  10  10  10  10   5  10  10  10
                       0   0   0   0   0   0   0   0   0   0
108      1     7       0   0   0   0   0   0   0
                       4   4   4   4   2   2   4
                       0   0   0   0   0   0   0
                       9   9   9   9   5   5   9
109      1     5       7   4   7   7   7
                       5   3   5   5   5
                       5   3   5   5   5
                       7   4   7   7   7
110      1     9       3   3   5   5   5   5   5   3   5
                       4   4   7   7   7   7   7   4   7
                       5   5   9   9   9   9   9   5   9
                       2   2   3   3   3   3   3   2   3
111      1    10       1   1   1   1   1   1   1   1   1   1
                       0   0   0   0   0   0   0   0   0   0
                       0   0   0   0   0   0   0   0   0   0
                       5   3   3   5   5   5   5   5   5   5
112      1     5       0   0   0   0   0
                       2   2   2   2   2
                       4   4   4   4   4
                       0   0   0   0   0
113      1     2       2   3
                       0   0
                       4   8
                       0   0
114      1     3      10  10  10
                       5   5   5
                      10  10  10
                       0   0   0
115      1     1       8
                       7
                       2
                       1
116      1    10       2   2   1   2   1   1   2   2   2   2
                       8   8   4   8   4   4   8   8   8   8
                       8   8   4   8   4   4   8   8   8   8
                       0   0   0   0   0   0   0   0   0   0
117      1     9       8   4   8   8   8   8   8   4   8
                      10   5  10  10  10  10  10   5  10
                       3   2   3   3   3   3   3   2   3
                       9   5   9   9   9   9   9   5   9
118      1     8       0   0   0   0   0   0   0   0
                       6   6   6   6   6   6   6   6
                       2   2   2   2   2   2   2   2
                       0   0   0   0   0   0   0   0
119      1     1       5
                       5
                       1
                       0
120      1    10       1   1   1   1   1   1   1   1   1   1
                       5   5   5   5   3   5   5   5   5   5
                      10  10  10  10   5  10  10  10  10  10
                       2   2   2   2   1   2   2   2   2   2
121      1    10       1   1   1   1   1   1   1   1   1   1
                       5   5   3   5   5   3   3   5   5   5
                       6   6   3   6   6   3   3   6   6   6
                       6   6   3   6   6   3   3   6   6   6
122      1     0    
************************************************************************
RESOURCEAVAILABILITIES:
  R 1  R 2  R 3  R 4

  32  32  32  16  16  32  16  32  16  32  32  32  32  32  32  16  32  16  32  32  32  32  32  32  16  32  32  32  32  32  32  32  32  32  32  32  32  32  16  32  32  32  32  16  32  32  32  32  32  32  32  32  32  32  16  32  32  32  32  16  32  16  32  32  16  32  32  32  32  16  16  16  32  32  32  32  32  32  32  16  32  32  32  32  32  32  16  32  32  32  32  16  32  16  16  32  32  16  32  32  32  16  32  32  32  32  32  32  32  32  32  32  32  32  16  32  32  32  32  32  32  32  32  32  32  32  32  32  32  16  32  32  32  32  32  32  32  16  16  32  32  32  32  32  32  32  16  32  32  32  32  32  32  32  32  32  16  32  32  32  32  32  32  16  32  16  32  32  32  16  16  32  16  32  32  32  32  32  32  32  32  32  16  32  32  32  32  32  32  32  32  32  32  32  16  32  32  32  32  32  32  32  32  32  32  32  32  32  32  32  32  32  32  32  32  32  32  32  32  32  32  32  32  32  32  32  32  32  32  16  32  32  32  32  32  32  32  32  16  32  32  16  32  32  32  32  32  32  32  32  32  32  16  32  32  32  32  16  16  32  32  32  16  32  32  16  32  32  32  32  32  16  32  32  16  16  32  32  16  32  16  32  32  32  32  32  32  32  16  32  32  32  16  16  32  32  32  32  32  32  32  32  32  32  32  32  32  32  32  16  32  32  32  32  32  32  32  32  32  32  32  32  16  32  32  32  32  32  32  32  32  16  32  32  32  32  32  32  16  32  32  32  32  32  32  32  32  32  32  16  32  16  16  32  32  16  32  32  32  16  32  32  32  32  32  32  32  32  32  32  32  32  16  32  32  32  16  32  32  32  32  16  32  32  16  32  32  32  16  32  32  32  32  16  32  32  32  32  32  32  32  32  32  32  32  16  32  16  32  32  32  32  32  32  16  16  32  32  16  32  32  32  32  32  32  32  32  32  32  16  16  32  32  32  32  32  32  32  32  32  32  32  32  32  32  32  32  16  32  32  16  32  32  32  32  32  32  32  32  32  32  16  32  32  32  32  32  32  32  16  16  32  32  32  32  32  16  16  16  32  32  16  32  32  16  32  32  16  32  32  32  32  32  16  32  32  32  16  32  32  32  32  16  32  32  16  32  32  32  32  32  32  32  32  32  32  32  32  32  16  32  32  16  32  32  32  32  32  32  32  16  32  32  32  32  16  32  32  32  32  32  16  32  32  16  32  32  32  32  16  32  32  16  32  32  16  32  32  32  32  32  32  32  32  32  32  32  32  32  32  32  32  16  32  32  32  16  32  32  32  32  32  32  32  32  32  32  32  32  16  32  32  32  16  16  16  32  32  32  16  32  32  16  32  16  32  32  32  32  32  16  32  32  32  32

  26  26  26  13  13  26  13  26  13  26  26  26  26  26  26  13  26  13  26  26  26  26  26  26  13  26  26  26  26  26  26  26  26  26  26  26  26  26  13  26  26  26  26  13  26  26  26  26  26  26  26  26  26  26  13  26  26  26  26  13  26  13  26  26  13  26  26  26  26  13  13  13  26  26  26  26  26  26  26  13  26  26  26  26  26  26  13  26  26  26  26  13  26  13  13  26  26  13  26  26  26  13  26  26  26  26  26  26  26  26  26  26  26  26  13  26  26  26  26  26  26  26  26  26  26  26  26  26  26  13  26  26  26  26  26  26  26  13  13  26  26  26  26  26  26  26  13  26  26  26  26  26  26  26  26  26  13  26  26  26  26  26  26  13  26  13  26  26  26  13  13  26  13  26  26  26  26  26  26  26  26  26  13  26  26  26  26  26  26  26  26  26  26  26  13  26  26  26  26  26  26  26  26  26  26  26  26  26  26  26  26  26  26  26  26  26  26  26  26  26  26  26  26  26  26  26  26  26  26  13  26  26  26  26  26  26  26  26  13  26  26  13  26  26  26  26  26  26  26  26  26  26  13  26  26  26  26  13  13  26  26  26  13  26  26  13  26  26  26  26  26  13  26  26  13  13  26  26  13  26  13  26  26  26  26  26  26  26  13  26  26  26  13  13  26  26  26  26  26  26  26  26  26  26  26  26  26  26  26  13  26  26  26  26  26  26  26  26  26  26  26  26  13  26  26  26  26  26  26  26  26  13  26  26  26  26  26  26  13  26  26  26  26  26  26  26  26  26  26  13  26  13  13  26  26  13  26  26  26  13  26  26  26  26  26  26  26  26  26  26  26  26  13  26  26  26  13  26  26  26  26  13  26  26  13  26  26  26  13  26  26  26  26  13  26  26  26  26  26  26  26  26  26  26  26  13  26  13  26  26  26  26  26  26  13  13  26  26  13  26  26  26  26  26  26  26  26  26  26  13  13  26  26  26  26  26  26  26  26  26  26  26  26  26  26  26  26  13  26  26  13  26  26  26  26  26  26  26  26  26  26  13  26  26  26  26  26  26  26  13  13  26  26  26  26  26  13  13  13  26  26  13  26  26  13  26  26  13  26  26  26  26  26  13  26  26  26  13  26  26  26  26  13  26  26  13  26  26  26  26  26  26  26  26  26  26  26  26  26  13  26  26  13  26  26  26  26  26  26  26  13  26  26  26  26  13  26  26  26  26  26  13  26  26  13  26  26  26  26  13  26  26  13  26  26  13  26  26  26  26  26  26  26  26  26  26  26  26  26  26  26  26  13  26  26  26  13  26  26  26  26  26  26  26  26  26  26  26  26  13  26  26  26  13  13  13  26  26  26  13  26  26  13  26  13  26  26  26  26  26  13  26  26  26  26

  37  37  37  19  19  37  19  37  19  37  37  37  37  37  37  19  37  19  37  37  37  37  37  37  19  37  37  37  37  37  37  37  37  37  37  37  37  37  19  37  37  37  37  19  37  37  37  37  37  37  37  37  37  37  19  37  37  37  37  19  37  19  37  37  19  37  37  37  37  19  19  19  37  37  37  37  37  37  37  19  37  37  37  37  37  37  19  37  37  37  37  19  37  19  19  37  37  19  37  37  37  19  37  37  37  37  37  37  37  37  37  37  37  37  19  37  37  37  37  37  37  37  37  37  37  37  37  37  37  19  37  37  37  37  37  37  37  19  19  37  37  37  37  37  37  37  19  37  37  37  37  37  37  37  37  37  19  37  37  37  37  37  37  19  37  19  37  37  37  19  19  37  19  37  37  37  37  37  37  37  37  37  19  37  37  37  37  37  37  37  37  37  37  37  19  37  37  37  37  37  37  37  37  37  37  37  37  37  37  37  37  37  37  37  37  37  37  37  37  37  37  37  37  37  37  37  37  37  37  19  37  37  37  37  37  37  37  37  19  37  37  19  37  37  37  37  37  37  37  37  37  37  19  37  37  37  37  19  19  37  37  37  19  37  37  19  37  37  37  37  37  19  37  37  19  19  37  37  19  37  19  37  37  37  37  37  37  37  19  37  37  37  19  19  37  37  37  37  37  37  37  37  37  37  37  37  37  37  37  19  37  37  37  37  37  37  37  37  37  37  37  37  19  37  37  37  37  37  37  37  37  19  37  37  37  37  37  37  19  37  37  37  37  37  37  37  37  37  37  19  37  19  19  37  37  19  37  37  37  19  37  37  37  37  37  37  37  37  37  37  37  37  19  37  37  37  19  37  37  37  37  19  37  37  19  37  37  37  19  37  37  37  37  19  37  37  37  37  37  37  37  37  37  37  37  19  37  19  37  37  37  37  37  37  19  19  37  37  19  37  37  37  37  37  37  37  37  37  37  19  19  37  37  37  37  37  37  37  37  37  37  37  37  37  37  37  37  19  37  37  19  37  37  37  37  37  37  37  37  37  37  19  37  37  37  37  37  37  37  19  19  37  37  37  37  37  19  19  19  37  37  19  37  37  19  37  37  19  37  37  37  37  37  19  37  37  37  19  37  37  37  37  19  37  37  19  37  37  37  37  37  37  37  37  37  37  37  37  37  19  37  37  19  37  37  37  37  37  37  37  19  37  37  37  37  19  37  37  37  37  37  19  37  37  19  37  37  37  37  19  37  37  19  37  37  19  37  37  37  37  37  37  37  37  37  37  37  37  37  37  37  37  19  37  37  37  19  37  37  37  37  37  37  37  37  37  37  37  37  19  37  37  37  19  19  19  37  37  37  19  37  37  19  37  19  37  37  37  37  37  19  37  37  37  37

  32  32  32  16  16  32  16  32  16  32  32  32  32  32  32  16  32  16  32  32  32  32  32  32  16  32  32  32  32  32  32  32  32  32  32  32  32  32  16  32  32  32  32  16  32  32  32  32  32  32  32  32  32  32  16  32  32  32  32  16  32  16  32  32  16  32  32  32  32  16  16  16  32  32  32  32  32  32  32  16  32  32  32  32  32  32  16  32  32  32  32  16  32  16  16  32  32  16  32  32  32  16  32  32  32  32  32  32  32  32  32  32  32  32  16  32  32  32  32  32  32  32  32  32  32  32  32  32  32  16  32  32  32  32  32  32  32  16  16  32  32  32  32  32  32  32  16  32  32  32  32  32  32  32  32  32  16  32  32  32  32  32  32  16  32  16  32  32  32  16  16  32  16  32  32  32  32  32  32  32  32  32  16  32  32  32  32  32  32  32  32  32  32  32  16  32  32  32  32  32  32  32  32  32  32  32  32  32  32  32  32  32  32  32  32  32  32  32  32  32  32  32  32  32  32  32  32  32  32  16  32  32  32  32  32  32  32  32  16  32  32  16  32  32  32  32  32  32  32  32  32  32  16  32  32  32  32  16  16  32  32  32  16  32  32  16  32  32  32  32  32  16  32  32  16  16  32  32  16  32  16  32  32  32  32  32  32  32  16  32  32  32  16  16  32  32  32  32  32  32  32  32  32  32  32  32  32  32  32  16  32  32  32  32  32  32  32  32  32  32  32  32  16  32  32  32  32  32  32  32  32  16  32  32  32  32  32  32  16  32  32  32  32  32  32  32  32  32  32  16  32  16  16  32  32  16  32  32  32  16  32  32  32  32  32  32  32  32  32  32  32  32  16  32  32  32  16  32  32  32  32  16  32  32  16  32  32  32  16  32  32  32  32  16  32  32  32  32  32  32  32  32  32  32  32  16  32  16  32  32  32  32  32  32  16  16  32  32  16  32  32  32  32  32  32  32  32  32  32  16  16  32  32  32  32  32  32  32  32  32  32  32  32  32  32  32  32  16  32  32  16  32  32  32  32  32  32  32  32  32  32  16  32  32  32  32  32  32  32  16  16  32  32  32  32  32  16  16  16  32  32  16  32  32  16  32  32  16  32  32  32  32  32  16  32  32  32  16  32  32  32  32  16  32  32  16  32  32  32  32  32  32  32  32  32  32  32  32  32  16  32  32  16  32  32  32  32  32  32  32  16  32  32  32  32  16  32  32  32  32  32  16  32  32  16  32  32  32  32  16  32  32  16  32  32  16  32  32  32  32  32  32  32  32  32  32  32  32  32  32  32  32  16  32  32  32  16  32  32  32  32  32  32  32  32  32  32  32  32  16  32  32  32  16  16  16  32  32  32  16  32  32  16  32  16  32  32  32  32  32  16  32  32  32  32

************************************************************************
